c clasp version 2.1.1
c Reading from p67.cnf
c Solving...
s SATISFIABLE

c Models        : 1+    
c Time          : 2.018s (Solving: 0.43s 1st Model: 0.43s Unsat: 0.00s)
c CPU Time      : 2.000s
c Choices       : 12020
c Conflicts     : 1090
c Restarts      : 2      (Average: 545.00 Last: 743)

c Variables     : 219397 (Eliminated: 68487 Frozen:    0)
c Constraints   : 249641 (Binary: 64.9% Ternary: 33.8% Other:  1.3%)
c Lemmas        : 1090   (Binary:  0.3% Ternary:  0.9% Other: 98.8%)
c   Conflict    : 1090   (Average Length: 98.1) 
c   Loop        : 0      (Average Length: 0.0) 
c   Other       : 0      (Average Length: 0.0)
c   Deleted     : 0     
